1662015600
1662033600
1662102000
1662112800
1662116400
1662123600
1662361200
1662379200
1662447600
1662465600
1662534000
1662552000
1662620400
1662638400
1662706800
1662717600
1662721200
1662728400
1662966000
1662984000
1663052400
1663070400
1663138800
1663156800
1663225200
1663243200
1663311600
1663322400
1663326000
1663333200
1663570800
1663588800
1663657200
1663675200
1663743600
1663761600
1663830000
1663848000
1663916400
1663927200
1663930800
1663938000
1664175600
1664193600
1664262000
1664280000
1664348400
1664366400
1664434800
1664452800
1664521200
1664532000
1664535600
1664542800
